# opt freq b3lyp/6-31g(d) 

CH OPT and FREQ Calc

0 2
 C                  0.37383177   -0.35825545    0.00000000
 H                  1.44383177   -0.35825545    0.00000000


