# irc=calcfc b3lyp/6-31g(d) 

CHN2 ts opt freq

0 2
 C                 -2.14012394    0.89897367    0.00000000
 N                 -1.06625244    0.27897367    0.00000000
 N                  0.57919583   -0.67102633    0.00000000
 H                 -3.06677112    1.43397367    0.00000000


