# opt freq b3lyp/6-31g(d) 

CO opt + Freq

0 1
 O                 -2.53869967    0.57275541    0.00000000
 C                 -3.79709967    0.57275541    0.00000000


