# opt freq b3lyp/6-31g(d) 

GaCH3 Opt and freq

0 1
 Ga                -0.85359132    0.97523218    0.00000000
 C                  0.70640868    0.97523218    0.00000000
 H                  1.06307503    0.50162667    0.89072270
 H                  1.06307503    0.44064667   -0.85551590
 H                  1.06307553    1.98342325   -0.03520681


