# opt freq b3lyp/6-31g(d) 

GaNH Optmization

0 2
 Ga                 0.29290855   -1.29457962    0.00000000
 N                  1.35122631   -0.12139441    0.00000000
 H                  2.31999704    0.12656378    0.00000000


