# opt freq b3lyp/6-31g(d) 

H2 opt + freq

0 1
 H                  0.00000000    0.00000000    0.30000000
 H                 -0.00000000    0.00000000   -0.30000000


