# opt freq b3lyp/6-31g(d) 

H2CO opt + freq

0 1
 C                  0.00000000    0.00000000   -0.56221066
 H                  0.00000000   -0.92444767   -1.10110537
 H                 -0.00000000    0.92444767   -1.10110537
 O                  0.00000000    0.00000000    0.69618930


