# opt freq b3lyp/6-31g(d) 

HCN Opt and Freq Calc

0 1
 C                 -0.58823529    0.60371516    0.00000000
 H                 -1.65823529    0.60371516    0.00000000
 N                  0.55836471    0.60371516    0.00000000


