# opt freq b3lyp/6-31g(d) 

N2 OPt and Freq Calc

0 1
 N                 -1.43590711    0.44891640    0.00000000
 N                 -2.87590711    0.44891640    0.00000000


