%chk=C:\Users\gpd20001\Desktop\MatLabKinectics\PS10\TS.chk
# hf/3-21g geom=connectivity

Title Card Required

0 1
 O                  0.00000000    0.00000000    0.80045000
 C                 -0.00000000   -0.00000000   -0.45795000
 H                  0.00000000    0.00000000   -1.52795000
 H                  0.00000000    0.00000000   -2.12795000

 1 2 2.0
 2 3 1.0
 3 4 1.0
 4

