# opt freq b3lyp/6-31g(d) 

C2H6 - opt + freq

0 1
 C                 -0.00000000   -0.00000000   -0.76999997
 H                  0.00000000    1.00880580   -1.12666628
 H                 -0.87365145   -0.50440290   -1.12666628
 H                  0.87365145   -0.50440290   -1.12666628
 C                  0.00000000    0.00000000    0.76999997
 H                 -0.87365145    0.50440290    1.12666628
 H                 -0.00000000   -1.00880580    1.12666628
 H                  0.87365145    0.50440290    1.12666628


