# opt freq b3lyp/6-31g(d) 

C3H8 - opt + freq

0 1
 C                 -1.25740457    0.00000000   -0.27357317
 H                 -1.25739447   -0.87364182   -0.89135149
 H                 -1.25739447    0.87364182   -0.89135149
 H                 -2.13105597    0.00000000    0.34419153
 C                  0.00000000   -0.00000000    0.61554642
 H                  0.00000000    0.87365136    1.23331123
 H                  0.00000000   -0.87365136    1.23331123
 C                  1.25740457    0.00000000   -0.27357317
 H                  1.25739447    0.87364182   -0.89135149
 H                  2.13105597    0.00000000    0.34419153
 H                  1.25739447   -0.87364182   -0.89135149


