# opt freq b3lyp/6-31g(d) 

CH4 - opt + freq

0 1
 C                 -0.03095975    0.20123839    0.00000000
 H                  0.32569467   -0.80757162    0.00000000
 H                  0.32571309    0.70563658    0.87365150
 H                  0.32571309    0.70563658   -0.87365150
 H                 -1.10095975    0.20125157    0.00000000


